Traveling Salesman Problem/TSP_generados/Aleatorio1620390888_7.tsp
NAME: Aleatorio1620390888_7.tsp
COMMENT: Randomly generated scenario
TYPE: TSP
DIMENSION: 7
EDGE_WEIGHT_TYPE: ATT
NODE_COORD_SECTION
1 6.4 9.36
2 33.13 21.23
3 42.5 7.28
4 18.38 45.93
5 33.33 45.24
6 8.04 39.68
7 28.61 3.81
