Traveling Salesman Problem/TSP_generados/Aleatorio1620390888_7.opt.tour
NAME: Aleatorio1620390888_7.opt.tour
COMMENT: Optimal solution for Aleatorio1620390888_7 (135.43776776224334)
TYPE: TOUR
DIMENSION: 7
TOUR_SECTION
1 6 4 5 2 3 7
-1
EOF
